Normalized Data/p01_22_normalized_split0.vrp
NAME:p01_22_NORMALIZED_split
BEST_KNOWN: 0
COMMENT: 0
DIMENSION: 188
CAPACITY: 100
EDGE_WEIGHT_FORMAT: FUNCTION
EDGE_WEIGHT_TYPE: EXACT_2D
NODE_COORD_SECTION
1 0.00000 0.00000
2 34 -34
3 34 -34
4 34 -34
5 34 -34
6 -40 -30
7 -40 -30
8 -40 -30
9 -40 -30
10 -40 -30
11 -30 39
12 -30 39
13 -30 39
14 -30 39
15 46 -8
16 46 -8
17 46 -8
18 46 -8
19 46 -8
20 46 -8
21 43 50
22 43 50
23 43 50
24 43 50
25 43 50
26 43 50
27 -16 -28
28 -16 -28
29 -16 -28
30 -16 -28
31 -42 -34
32 -42 -34
33 -42 -34
34 -42 -34
35 -42 -34
36 18 1
37 18 1
38 18 1
39 18 1
40 18 1
41 -50 -4
42 -50 -4
43 -50 -4
44 31 42
45 31 42
46 31 42
47 -24 30
48 -24 30
49 -24 30
50 -24 30
51 37 33
52 37 33
53 37 33
54 -4 18
55 -4 18
56 -4 18
57 -4 18
58 -4 18
59 14 -3
60 14 -3
61 14 -3
62 14 -3
63 14 -3
64 -14 35
65 -14 35
66 9 40
67 9 40
68 9 40
69 9 40
70 9 40
71 9 40
72 -14 36
73 -14 36
74 -7 -48
75 -7 -48
76 -7 -48
77 -28 -36
78 -28 -36
79 -28 -36
80 -28 -36
81 -28 -36
82 35 -3
83 35 -3
84 35 -3
85 35 -3
86 35 -3
87 -6 -12
88 -6 -12
89 -6 -12
90 -6 -12
91 -6 -12
92 47 34
93 47 34
94 47 34
95 47 34
96 47 34
97 47 -2
98 47 -2
99 47 -2
100 -44 29
101 -44 29
102 -44 29
103 12 -45
104 12 -45
105 25 6
106 -48 -43
107 -48 -43
108 -48 -43
109 47 -18
110 47 -18
111 6 -37
112 21 37
113 21 37
114 -13 -6
115 5 28
116 5 28
117 5 28
118 -5 -47
119 -5 -47
120 -5 -47
121 -13 20
122 -13 20
123 -13 20
124 38 -33
125 38 -33
126 17 38
127 17 38
128 17 38
129 27 4
130 27 4
131 27 4
132 20 34
133 20 34
134 20 34
135 20 34
136 20 34
137 20 34
138 -32 15
139 -32 15
140 -32 15
141 -32 15
142 -3 33
143 -3 33
144 -3 33
145 39 -4
146 39 -4
147 39 -4
148 39 -4
149 -16 5
150 -16 5
151 13 -16
152 13 -16
153 13 -16
154 13 -16
155 13 -16
156 13 -16
157 36 41
158 36 41
159 36 41
160 36 41
161 -1 -33
162 -1 -33
163 -1 -33
164 -1 -33
165 -1 -33
166 1 -11
167 1 -11
168 1 -11
169 1 -11
170 -1 13
171 -1 13
172 -1 13
173 -1 13
174 -1 13
175 -1 13
176 -33 41
177 -33 41
178 -33 41
179 -33 41
180 -33 41
181 -49 -49
182 -49 -49
183 -49 -49
184 -49 -49
185 -49 -49
186 -49 -49
187 33 -32
188 33 -32
DEMAND_SECTION
1 0
2 20
3 1
4 1
5 1
6 10
7 5
8 1
9 1
10 1
11 20
12 10
13 5
14 1
15 10
16 5
17 1
18 1
19 1
20 1
21 20
22 20
23 1
24 1
25 1
26 1
27 20
28 1
29 1
30 1
31 20
32 20
33 5
34 1
35 1
36 20
37 20
38 1
39 1
40 1
41 20
42 10
43 5
44 20
45 5
46 1
47 20
48 10
49 5
50 1
51 20
52 10
53 5
54 20
55 10
56 1
57 1
58 1
59 20
60 20
61 1
62 1
63 1
64 20
65 1
66 20
67 10
68 5
69 1
70 1
71 1
72 20
73 5
74 20
75 20
76 1
77 20
78 20
79 1
80 1
81 1
82 10
83 5
84 1
85 1
86 1
87 20
88 20
89 1
90 1
91 1
92 10
93 1
94 1
95 1
96 1
97 10
98 1
99 1
100 20
101 10
102 1
103 20
104 10
105 20
106 20
107 20
108 1
109 20
110 5
111 20
112 10
113 5
114 20
115 20
116 20
117 1
118 20
119 20
120 5
121 20
122 20
123 10
124 20
125 5
126 20
127 10
128 1
129 20
130 1
131 1
132 20
133 20
134 1
135 1
136 1
137 1
138 10
139 5
140 1
141 1
142 20
143 10
144 1
145 20
146 10
147 5
148 1
149 20
150 20
151 20
152 10
153 1
154 1
155 1
156 1
157 10
158 1
159 1
160 1
161 10
162 5
163 1
164 1
165 1
166 10
167 5
168 1
169 1
170 20
171 5
172 1
173 1
174 1
175 1
176 20
177 20
178 1
179 1
180 1
181 20
182 20
183 1
184 1
185 1
186 1
187 20
188 1
DEPOT_SECTION
1
-1
EOF