Normalized Data/p01_22_normalized_split0.sol
187 -6 32 33 30 31 34 76 79 77 28 29 89 88 90 -7 9 5 8 106 107 105 180 183 184 185 181 182 78 80 -12 10 11 13 179 176 178 175 177 49 46 -14 17 19 15 16 18 96 98 97 147 146 144 145 85 84 81 83 82 -26 27 160 164 110 102 103 168 165 167 166 -36 37 38 35 39 128 129 130 104 -41 42 40 140 137 138 139 101 99 100 48 47 -43 44 45 157 156 159 158 20 25 24 22 23 21 92 91 93 94 95 -51 52 50 111 112 132 133 136 134 135 131 -54 57 115 66 69 68 70 65 67 126 125 127 -61 60 62 58 59 153 155 151 150 154 152 -63 64 72 71 142 141 143 114 116 172 -75 73 74 118 117 119 162 161 163 -86 87 113 149 148 -108 109 123 124 4 3 1 2 186 187 -120 121 122 53 55 56 171 169 173 174 170 0 





OBJ=
1589.064
BEST_KNOWN=
0.000